Instance: E253-27k.dat
Class:  1
252 --- number of customers (no depot)
27 --- number of vehicles
252 --- number of items
Capacity - height - width of vehicles
  1000     40     20
Node - x - y - demand  Readytime Duetime
  0.00    0.00   0.00   0.00 0       509.00
  1.00    3.00   1.00 300.00  95.00  127.00
  2.00    3.00   3.00 300.00 432.00  468.00
  3.00    1.00   3.00 300.00  80.00  112.00
  4.00   -1.00   3.00 300.00 428.00  469.00
  5.00   -3.00   3.00 300.00 404.00  436.00
  6.00   -3.00   1.00 300.00 358.00  393.00
  7.00   -3.00  -1.00 300.00 437.00  481.00
  8.00   -3.00  -3.00 300.00 241.00  284.00
  9.00   -1.00  -3.00 300.00 348.00  378.00
 10.00    1.00  -3.00 300.00 241.00  278.00
 11.00    3.00  -3.00 300.00 350.00  392.00
 12.00    3.00  -1.00 300.00  39.00   84.00
 13.00    5.00   1.00 180.00 185.00  224.00
 14.00    5.00   3.00 180.00 203.00  239.00
 15.00    5.00   5.00 180.00  61.00  102.00
 16.00    3.00   5.00 180.00  26.00   69.00
 17.00    1.00   5.00 180.00 361.00  406.00
 18.00   -1.00   5.00 180.00  28.00   73.00
 19.00   -3.00   5.00 180.00 136.00  179.00
 20.00   -5.00   5.00 180.00 371.00  412.00
 21.00   -5.00   3.00 180.00 179.00  214.00
 22.00   -5.00   1.00 180.00 323.00  362.00
 23.00   -5.00  -1.00 180.00 346.00  378.00
 24.00   -5.00  -3.00 180.00 206.00  246.00
 25.00   -5.00  -5.00 180.00  82.00  127.00
 26.00   -3.00  -5.00 180.00 403.00  442.00
 27.00   -1.00  -5.00 180.00 368.00  402.00
 28.00    1.00  -5.00 180.00  35.00   71.00
 29.00    3.00  -5.00 180.00 315.00  347.00
 30.00    5.00  -5.00 180.00 190.00  225.00
 31.00    5.00  -3.00 180.00 331.00  361.00
 32.00    5.00  -1.00 180.00 110.00  148.00
 33.00    7.00   1.00 128.00 314.00  346.00
 34.00    7.00   3.00 128.00 143.00  183.00
 35.00    7.00   5.00 128.00  18.00   60.00
 36.00    7.00   7.00 128.00  78.00  115.00
 37.00    5.00   7.00 128.00 253.00  292.00
 38.00    3.00   7.00 128.00 348.00  385.00
 39.00    1.00   7.00 128.00 131.00  165.00
 40.00   -1.00   7.00 128.00 231.00  275.00
 41.00   -3.00   7.00 128.00 402.00  435.00
 42.00   -5.00   7.00 128.00 275.00  319.00
 43.00   -7.00   7.00 128.00 419.00  454.00
 44.00   -7.00   5.00 128.00 136.00  181.00
 45.00   -7.00   3.00 128.00 143.00  183.00
 46.00   -7.00   1.00 128.00 350.00  385.00
 47.00   -7.00  -1.00 128.00 351.00  387.00
 48.00   -7.00  -3.00 128.00 151.00  191.00
 49.00   -7.00  -5.00 128.00 352.00  383.00
 50.00   -7.00  -7.00 128.00 207.00  245.00
 51.00   -5.00  -7.00 128.00 204.00  246.00
 52.00   -3.00  -7.00 128.00 281.00  325.00
 53.00   -1.00  -7.00 128.00  18.00   49.00
 54.00    1.00  -7.00 128.00 109.00  150.00
 55.00    3.00  -7.00 128.00 200.00  230.00
 56.00    5.00  -7.00 128.00 311.00  352.00
 57.00    7.00  -7.00 128.00 180.00  224.00
 58.00    7.00  -5.00 128.00 391.00  436.00
 59.00    7.00  -3.00 128.00  90.00  125.00
 60.00    7.00  -1.00 128.00 180.00  224.00
 61.00    9.00   1.00 100.00  68.00  112.00
 62.00    9.00   3.00 100.00  31.00   68.00
 63.00    9.00   5.00 100.00 387.00  419.00
 64.00    9.00   7.00 100.00 406.00  441.00
 65.00    9.00   9.00 100.00 304.00  334.00
 66.00    7.00   9.00 100.00 295.00  340.00
 67.00    5.00   9.00 100.00  16.00   56.00
 68.00    3.00   9.00 100.00 103.00  134.00
 69.00    1.00   9.00 100.00 172.00  212.00
 70.00   -1.00   9.00 100.00 154.00  198.00
 71.00   -3.00   9.00 100.00 411.00  449.00
 72.00   -5.00   9.00 100.00 283.00  324.00
 73.00   -7.00   9.00 100.00 376.00  421.00
 74.00   -9.00   9.00 100.00 174.00  210.00
 75.00   -9.00   7.00 100.00 409.00  447.00
 76.00   -9.00   5.00 100.00  63.00   98.00
 77.00   -9.00   3.00 100.00  65.00  110.00
 78.00   -9.00   1.00 100.00 315.00  351.00
 79.00   -9.00  -1.00 100.00 152.00  188.00
 80.00   -9.00  -3.00 100.00 102.00  135.00
 81.00   -9.00  -5.00 100.00 234.00  266.00
 82.00   -9.00  -7.00 100.00 276.00  312.00
 83.00   -9.00  -9.00 100.00 231.00  268.00
 84.00   -7.00  -9.00 100.00 422.00  467.00
 85.00   -5.00  -9.00 100.00 194.00  227.00
 86.00   -3.00  -9.00 100.00 139.00  175.00
 87.00   -1.00  -9.00 100.00 144.00  185.00
 88.00    1.00  -9.00 100.00 319.00  350.00
 89.00    3.00  -9.00 100.00 423.00  455.00
 90.00    5.00  -9.00 100.00  98.00  130.00
 91.00    7.00  -9.00 100.00 369.00  410.00
 92.00    9.00  -9.00 100.00 189.00  228.00
 93.00    9.00  -7.00 100.00 155.00  191.00
 94.00    9.00  -5.00 100.00  69.00  107.00
 95.00    9.00  -3.00 100.00 180.00  220.00
 96.00    9.00  -1.00 100.00  92.00  129.00
 97.00   11.00   1.00  81.00  25.00   62.00
 98.00   11.00   3.00  81.00 159.00  202.00
 99.00   11.00   5.00  81.00  19.00   51.00
100.00   11.00   7.00  81.00 116.00  153.00
101.00   11.00   9.00  81.00 418.00  452.00
102.00   11.00  11.00  81.00 112.00  146.00
103.00    9.00  11.00  81.00 431.00  476.00
104.00    7.00  11.00  81.00 417.00  454.00
105.00    5.00  11.00  81.00 409.00  444.00
106.00    3.00  11.00  81.00 408.00  446.00
107.00    1.00  11.00  81.00 421.00  457.00
108.00   -1.00  11.00  81.00 209.00  253.00
109.00   -3.00  11.00  81.00 368.00  399.00
110.00   -5.00  11.00  81.00 341.00  372.00
111.00   -7.00  11.00  81.00  59.00   96.00
112.00   -9.00  11.00  81.00 233.00  276.00
113.00  -11.00  11.00  81.00 253.00  297.00
114.00  -11.00   9.00  81.00 214.00  248.00
115.00  -11.00   7.00  81.00 434.00  469.00
116.00  -11.00   5.00  81.00 258.00  297.00
117.00  -11.00   3.00  81.00 364.00  404.00
118.00  -11.00   1.00  81.00 117.00  153.00
119.00  -11.00  -1.00  81.00  61.00   99.00
120.00  -11.00  -3.00  81.00  65.00   97.00
121.00  -11.00  -5.00  81.00 294.00  325.00
122.00  -11.00  -7.00  81.00 247.00  292.00
123.00  -11.00  -9.00  81.00 263.00  303.00
124.00  -11.00 -11.00  81.00 300.00  337.00
125.00   -9.00 -11.00  81.00 343.00  378.00
126.00   -7.00 -11.00  81.00 381.00  414.00
127.00   -5.00 -11.00  81.00 155.00  192.00
128.00   -3.00 -11.00  81.00 262.00  299.00
129.00   -1.00 -11.00  81.00  12.00   47.00
130.00    1.00 -11.00  81.00 420.00  452.00
131.00    3.00 -11.00  81.00  73.00  104.00
132.00    5.00 -11.00  81.00 308.00  344.00
133.00    7.00 -11.00  81.00  30.00   70.00
134.00    9.00 -11.00  81.00 183.00  219.00
135.00   11.00 -11.00  81.00 331.00  376.00
136.00   11.00  -9.00  81.00 316.00  357.00
137.00   11.00  -7.00  81.00 239.00  283.00
138.00   11.00  -5.00  81.00 283.00  316.00
139.00   11.00  -3.00  81.00 211.00  243.00
140.00   11.00  -1.00  81.00 258.00  297.00
141.00   13.00   1.00  69.00 199.00  241.00
142.00   13.00   3.00  69.00 315.00  353.00
143.00   13.00   5.00  69.00 336.00  375.00
144.00   13.00   7.00  69.00 197.00  228.00
145.00   13.00   9.00  69.00 357.00  393.00
146.00   13.00  11.00  69.00 105.00  137.00
147.00   13.00  13.00  69.00 273.00  307.00
148.00   11.00  13.00  69.00 218.00  263.00
149.00    9.00  13.00  69.00 302.00  345.00
150.00    7.00  13.00  69.00 303.00  344.00
151.00    5.00  13.00  69.00 327.00  372.00
152.00    3.00  13.00  69.00 397.00  434.00
153.00    1.00  13.00  69.00 291.00  324.00
154.00   -1.00  13.00  69.00  13.00   48.00
155.00   -3.00  13.00  69.00 240.00  276.00
156.00   -5.00  13.00  69.00 438.00  476.00
157.00   -7.00  13.00  69.00 101.00  138.00
158.00   -9.00  13.00  69.00 252.00  291.00
159.00  -11.00  13.00  69.00 394.00  435.00
160.00  -13.00  13.00  69.00 354.00  399.00
161.00  -13.00  11.00  69.00 435.00  478.00
162.00  -13.00   9.00  69.00 107.00  137.00
163.00  -13.00   7.00  69.00 349.00  384.00
164.00  -13.00   5.00  69.00  80.00  113.00
165.00  -13.00   3.00  69.00 380.00  413.00
166.00  -13.00   1.00  69.00  38.00   74.00
167.00  -13.00  -1.00  69.00 349.00  384.00
168.00  -13.00  -3.00  69.00 242.00  274.00
169.00  -13.00  -5.00  69.00 229.00  264.00
170.00  -13.00  -7.00  69.00  55.00   95.00
171.00  -13.00  -9.00  69.00  75.00  110.00
172.00  -13.00 -11.00  69.00 390.00  431.00
173.00  -13.00 -13.00  69.00 205.00  250.00
174.00  -11.00 -13.00  69.00 268.00  309.00
175.00   -9.00 -13.00  69.00  58.00   88.00
176.00   -7.00 -13.00  69.00 105.00  148.00
177.00   -5.00 -13.00  69.00 111.00  141.00
178.00   -3.00 -13.00  69.00 140.00  171.00
179.00   -1.00 -13.00  69.00 189.00  224.00
180.00    1.00 -13.00  69.00 445.00  480.00
181.00    3.00 -13.00  69.00 330.00  364.00
182.00    5.00 -13.00  69.00 206.00  244.00
183.00    7.00 -13.00  69.00 157.00  202.00
184.00    9.00 -13.00  69.00  98.00  128.00
185.00   11.00 -13.00  69.00 139.00  176.00
186.00   13.00 -13.00  69.00 343.00  383.00
187.00   13.00 -11.00  69.00 428.00  468.00
188.00   13.00  -9.00  69.00 210.00  245.00
189.00   13.00  -7.00  69.00 326.00  356.00
190.00   13.00  -5.00  69.00 436.00  466.00
191.00   13.00  -3.00  69.00 243.00  285.00
192.00   13.00  -1.00  69.00 381.00  425.00
193.00   15.00   1.00  60.00 308.00  343.00
194.00   15.00   3.00  60.00 118.00  159.00
195.00   15.00   5.00  60.00 264.00  294.00
196.00   15.00   7.00  60.00 253.00  289.00
197.00   15.00   9.00  60.00 280.00  321.00
198.00   15.00  11.00  60.00 316.00  357.00
199.00   15.00  13.00  60.00 365.00  410.00
200.00   15.00  15.00  60.00  76.00  119.00
201.00   13.00  15.00  60.00 344.00  384.00
202.00   11.00  15.00  60.00 135.00  167.00
203.00    9.00  15.00  60.00 433.00  472.00
204.00    7.00  15.00  60.00  46.00   89.00
205.00    5.00  15.00  60.00 226.00  271.00
206.00    3.00  15.00  60.00 331.00  364.00
207.00    1.00  15.00  60.00 119.00  155.00
208.00   -1.00  15.00  60.00 274.00  304.00
209.00   -3.00  15.00  60.00  82.00  114.00
210.00   -5.00  15.00  60.00 175.00  215.00
211.00   -7.00  15.00  60.00 290.00  333.00
212.00   -9.00  15.00  60.00 266.00  302.00
213.00  -11.00  15.00  60.00 401.00  443.00
214.00  -13.00  15.00  60.00 296.00  332.00
215.00  -15.00  15.00  60.00 170.00  209.00
216.00  -15.00  13.00  60.00 195.00  238.00
217.00  -15.00  11.00  60.00 109.00  153.00
218.00  -15.00   9.00  60.00 172.00  206.00
219.00  -15.00   7.00  60.00 224.00  257.00
220.00  -15.00   5.00  60.00 188.00  225.00
221.00  -15.00   3.00  60.00 245.00  280.00
222.00  -15.00   1.00  60.00 415.00  460.00
223.00  -15.00  -1.00  60.00  26.00   61.00
224.00  -15.00  -3.00  60.00 441.00  478.00
225.00  -15.00  -5.00  60.00   9.00   48.00
226.00  -15.00  -7.00  60.00 175.00  218.00
227.00  -15.00  -9.00  60.00 182.00  222.00
228.00  -15.00 -11.00  60.00  21.00   60.00
229.00  -15.00 -13.00  60.00  18.00   49.00
230.00  -15.00 -15.00  60.00  27.00   70.00
231.00  -13.00 -15.00  60.00 440.00  472.00
232.00  -11.00 -15.00  60.00 304.00  348.00
233.00   -9.00 -15.00  60.00 283.00  314.00
234.00   -7.00 -15.00  60.00 115.00  150.00
235.00   -5.00 -15.00  60.00  75.00  105.00
236.00   -3.00 -15.00  60.00  85.00  126.00
237.00   -1.00 -15.00  60.00 230.00  264.00
238.00    1.00 -15.00  60.00 276.00  315.00
239.00    3.00 -15.00  60.00 256.00  292.00
240.00    5.00 -15.00  60.00 169.00  199.00
241.00    7.00 -15.00  60.00  76.00  117.00
242.00    9.00 -15.00  60.00 205.00  243.00
243.00   11.00 -15.00  60.00 388.00  422.00
244.00   13.00 -15.00  60.00  35.00   65.00
245.00   15.00 -15.00  60.00 203.00  240.00
246.00   15.00 -13.00  60.00 279.00  324.00
247.00   15.00 -11.00  60.00 217.00  249.00
248.00   15.00  -9.00  60.00 148.00  184.00
249.00   15.00  -7.00  60.00 154.00  198.00
250.00   15.00  -5.00  60.00 253.00  283.00
251.00   15.00  -3.00  60.00 406.00  439.00
252.00   15.00  -1.00  60.00 189.00  232.00
Node - number of items - h - w for each item
    0   0
    1   1    1    1
    2   1    1    1
    3   1    1    1
    4   1    1    1
    5   1    1    1
    6   1    1    1
    7   1    1    1
    8   1    1    1
    9   1    1    1
   10   1    1    1
   11   1    1    1
   12   1    1    1
   13   1    1    1
   14   1    1    1
   15   1    1    1
   16   1    1    1
   17   1    1    1
   18   1    1    1
   19   1    1    1
   20   1    1    1
   21   1    1    1
   22   1    1    1
   23   1    1    1
   24   1    1    1
   25   1    1    1
   26   1    1    1
   27   1    1    1
   28   1    1    1
   29   1    1    1
   30   1    1    1
   31   1    1    1
   32   1    1    1
   33   1    1    1
   34   1    1    1
   35   1    1    1
   36   1    1    1
   37   1    1    1
   38   1    1    1
   39   1    1    1
   40   1    1    1
   41   1    1    1
   42   1    1    1
   43   1    1    1
   44   1    1    1
   45   1    1    1
   46   1    1    1
   47   1    1    1
   48   1    1    1
   49   1    1    1
   50   1    1    1
   51   1    1    1
   52   1    1    1
   53   1    1    1
   54   1    1    1
   55   1    1    1
   56   1    1    1
   57   1    1    1
   58   1    1    1
   59   1    1    1
   60   1    1    1
   61   1    1    1
   62   1    1    1
   63   1    1    1
   64   1    1    1
   65   1    1    1
   66   1    1    1
   67   1    1    1
   68   1    1    1
   69   1    1    1
   70   1    1    1
   71   1    1    1
   72   1    1    1
   73   1    1    1
   74   1    1    1
   75   1    1    1
   76   1    1    1
   77   1    1    1
   78   1    1    1
   79   1    1    1
   80   1    1    1
   81   1    1    1
   82   1    1    1
   83   1    1    1
   84   1    1    1
   85   1    1    1
   86   1    1    1
   87   1    1    1
   88   1    1    1
   89   1    1    1
   90   1    1    1
   91   1    1    1
   92   1    1    1
   93   1    1    1
   94   1    1    1
   95   1    1    1
   96   1    1    1
   97   1    1    1
   98   1    1    1
   99   1    1    1
  100   1    1    1
  101   1    1    1
  102   1    1    1
  103   1    1    1
  104   1    1    1
  105   1    1    1
  106   1    1    1
  107   1    1    1
  108   1    1    1
  109   1    1    1
  110   1    1    1
  111   1    1    1
  112   1    1    1
  113   1    1    1
  114   1    1    1
  115   1    1    1
  116   1    1    1
  117   1    1    1
  118   1    1    1
  119   1    1    1
  120   1    1    1
  121   1    1    1
  122   1    1    1
  123   1    1    1
  124   1    1    1
  125   1    1    1
  126   1    1    1
  127   1    1    1
  128   1    1    1
  129   1    1    1
  130   1    1    1
  131   1    1    1
  132   1    1    1
  133   1    1    1
  134   1    1    1
  135   1    1    1
  136   1    1    1
  137   1    1    1
  138   1    1    1
  139   1    1    1
  140   1    1    1
  141   1    1    1
  142   1    1    1
  143   1    1    1
  144   1    1    1
  145   1    1    1
  146   1    1    1
  147   1    1    1
  148   1    1    1
  149   1    1    1
  150   1    1    1
  151   1    1    1
  152   1    1    1
  153   1    1    1
  154   1    1    1
  155   1    1    1
  156   1    1    1
  157   1    1    1
  158   1    1    1
  159   1    1    1
  160   1    1    1
  161   1    1    1
  162   1    1    1
  163   1    1    1
  164   1    1    1
  165   1    1    1
  166   1    1    1
  167   1    1    1
  168   1    1    1
  169   1    1    1
  170   1    1    1
  171   1    1    1
  172   1    1    1
  173   1    1    1
  174   1    1    1
  175   1    1    1
  176   1    1    1
  177   1    1    1
  178   1    1    1
  179   1    1    1
  180   1    1    1
  181   1    1    1
  182   1    1    1
  183   1    1    1
  184   1    1    1
  185   1    1    1
  186   1    1    1
  187   1    1    1
  188   1    1    1
  189   1    1    1
  190   1    1    1
  191   1    1    1
  192   1    1    1
  193   1    1    1
  194   1    1    1
  195   1    1    1
  196   1    1    1
  197   1    1    1
  198   1    1    1
  199   1    1    1
  200   1    1    1
  201   1    1    1
  202   1    1    1
  203   1    1    1
  204   1    1    1
  205   1    1    1
  206   1    1    1
  207   1    1    1
  208   1    1    1
  209   1    1    1
  210   1    1    1
  211   1    1    1
  212   1    1    1
  213   1    1    1
  214   1    1    1
  215   1    1    1
  216   1    1    1
  217   1    1    1
  218   1    1    1
  219   1    1    1
  220   1    1    1
  221   1    1    1
  222   1    1    1
  223   1    1    1
  224   1    1    1
  225   1    1    1
  226   1    1    1
  227   1    1    1
  228   1    1    1
  229   1    1    1
  230   1    1    1
  231   1    1    1
  232   1    1    1
  233   1    1    1
  234   1    1    1
  235   1    1    1
  236   1    1    1
  237   1    1    1
  238   1    1    1
  239   1    1    1
  240   1    1    1
  241   1    1    1
  242   1    1    1
  243   1    1    1
  244   1    1    1
  245   1    1    1
  246   1    1    1
  247   1    1    1
  248   1    1    1
  249   1    1    1
  250   1    1    1
  251   1    1    1
  252   1    1    1